(set-logic QF_LRA)
(declare-fun i_0 () Real)
(declare-fun s_0 () Real)
(declare-fun beta_0 () Real)
(declare-fun beta_1 () Real)
(declare-fun gamma () Real)
(declare-fun delta () Real)
(declare-fun n () Real)
(declare-fun r_0 () Real)
(assert (and (and (= s_0 1000.0) (= i_0 1.0) (= r_0 1.0) (= n (+ (+ s_0 i_0) r_0))) (and (= gamma 0.07142857142857142) (= delta 0.0) (= beta_0 6.7e-05) (= beta_1 6.7e-05))))
(push 1)
(assert (< i_0 (* n 0.01)))
(push 1)
(declare-fun s_n_1 () Real)
(declare-fun r_n_1 () Real)
(declare-fun i_n_1 () Real)
(assert (and (= r_n_1 (+ (* gamma i_0) r_0)) (= s_n_1 (+ (* (* (* beta_0 (- 1.0)) s_0) i_0) s_0)) (= i_n_1 (+ (- (* (* beta_0 s_0) i_0) (* gamma i_0)) i_0)) (<= r_n_1 n) (<= 0.0 r_n_1) (<= s_n_1 n) (<= 0.0 s_n_1) (<= i_n_1 n) (<= 0.0 i_n_1)))
(push 1)
(declare-fun scale_1 () Real)
(assert (and (= scale_1 (/ n (+ (+ s_n_1 i_n_1) r_n_1))) (<= scale_1 1.0) (<= 0.0 scale_1)))
(push 1)
(declare-fun i_1 () Real)
(declare-fun s_1 () Real)
(declare-fun r_1 () Real)
(assert (and (= s_1 (* s_n_1 scale_1)) (= i_1 (* i_n_1 scale_1)) (= r_1 (* r_n_1 scale_1)) (<= r_1 n) (<= 0.0 r_1) (<= s_1 n) (<= 0.0 s_1) (<= i_1 n) (<= 0.0 i_1)))
(push 1)
(assert (< i_1 (* n 0.01)))
(push 1)
(declare-fun r_n_2 () Real)
(declare-fun s_n_2 () Real)
(declare-fun i_n_2 () Real)
(assert (and (= r_n_2 (+ (* gamma i_1) r_1)) (= s_n_2 (+ (* (* (* beta_0 (- 1.0)) s_1) i_1) s_1)) (= i_n_2 (+ (- (* (* beta_0 s_1) i_1) (* gamma i_1)) i_1)) (<= r_n_2 n) (<= 0.0 r_n_2) (<= s_n_2 n) (<= 0.0 s_n_2) (<= i_n_2 n) (<= 0.0 i_n_2)))
(push 1)
(declare-fun scale_2 () Real)
(assert (and (= scale_2 (/ n (+ (+ s_n_2 i_n_2) r_n_2))) (<= scale_2 1.0) (<= 0.0 scale_2)))
(push 1)
(declare-fun i_2 () Real)
(declare-fun s_2 () Real)
(declare-fun r_2 () Real)
(assert (and (= s_2 (* s_n_2 scale_2)) (= i_2 (* i_n_2 scale_2)) (= r_2 (* r_n_2 scale_2)) (<= r_2 n) (<= 0.0 r_2) (<= s_2 n) (<= 0.0 s_2) (<= i_2 n) (<= 0.0 i_2)))
(push 1)
(assert (< i_2 (* n 0.01)))
(push 1)
(declare-fun i_n_3 () Real)
(declare-fun s_n_3 () Real)
(declare-fun r_n_3 () Real)
(assert (and (= r_n_3 (+ (* gamma i_2) r_2)) (= s_n_3 (+ (* (* (* beta_0 (- 1.0)) s_2) i_2) s_2)) (= i_n_3 (+ (- (* (* beta_0 s_2) i_2) (* gamma i_2)) i_2)) (<= r_n_3 n) (<= 0.0 r_n_3) (<= s_n_3 n) (<= 0.0 s_n_3) (<= i_n_3 n) (<= 0.0 i_n_3)))
(push 1)
(declare-fun scale_3 () Real)
(assert (and (= scale_3 (/ n (+ (+ s_n_3 i_n_3) r_n_3))) (<= scale_3 1.0) (<= 0.0 scale_3)))
(push 1)
(declare-fun r_3 () Real)
(declare-fun i_3 () Real)
(declare-fun s_3 () Real)
(assert (and (= s_3 (* s_n_3 scale_3)) (= i_3 (* i_n_3 scale_3)) (= r_3 (* r_n_3 scale_3)) (<= r_3 n) (<= 0.0 r_3) (<= s_3 n) (<= 0.0 s_3) (<= i_3 n) (<= 0.0 i_3)))
(push 1)
(assert (< i_3 (* n 0.01)))
(push 1)
(declare-fun i_n_4 () Real)
(declare-fun r_n_4 () Real)
(declare-fun s_n_4 () Real)
(assert (and (= r_n_4 (+ (* gamma i_3) r_3)) (= s_n_4 (+ (* (* (* beta_0 (- 1.0)) s_3) i_3) s_3)) (= i_n_4 (+ (- (* (* beta_0 s_3) i_3) (* gamma i_3)) i_3)) (<= r_n_4 n) (<= 0.0 r_n_4) (<= s_n_4 n) (<= 0.0 s_n_4) (<= i_n_4 n) (<= 0.0 i_n_4)))
(push 1)
(declare-fun scale_4 () Real)
(assert (and (= scale_4 (/ n (+ (+ s_n_4 i_n_4) r_n_4))) (<= scale_4 1.0) (<= 0.0 scale_4)))
(push 1)
(declare-fun r_4 () Real)
(declare-fun i_4 () Real)
(declare-fun s_4 () Real)
(assert (and (= s_4 (* s_n_4 scale_4)) (= i_4 (* i_n_4 scale_4)) (= r_4 (* r_n_4 scale_4)) (<= r_4 n) (<= 0.0 r_4) (<= s_4 n) (<= 0.0 s_4) (<= i_4 n) (<= 0.0 i_4)))
(push 1)
(assert (< i_4 (* n 0.01)))
(push 1)
(declare-fun i_n_5 () Real)
(declare-fun s_n_5 () Real)
(declare-fun r_n_5 () Real)
(assert (and (= r_n_5 (+ (* gamma i_4) r_4)) (= s_n_5 (+ (* (* (* beta_0 (- 1.0)) s_4) i_4) s_4)) (= i_n_5 (+ (- (* (* beta_0 s_4) i_4) (* gamma i_4)) i_4)) (<= r_n_5 n) (<= 0.0 r_n_5) (<= s_n_5 n) (<= 0.0 s_n_5) (<= i_n_5 n) (<= 0.0 i_n_5)))
(push 1)
(declare-fun scale_5 () Real)
(assert (and (= scale_5 (/ n (+ (+ s_n_5 i_n_5) r_n_5))) (<= scale_5 1.0) (<= 0.0 scale_5)))
(push 1)
(declare-fun s_5 () Real)
(declare-fun r_5 () Real)
(declare-fun i_5 () Real)
(assert (and (= s_5 (* s_n_5 scale_5)) (= i_5 (* i_n_5 scale_5)) (= r_5 (* r_n_5 scale_5)) (<= r_5 n) (<= 0.0 r_5) (<= s_5 n) (<= 0.0 s_5) (<= i_5 n) (<= 0.0 i_5)))
(push 1)
(assert (< i_5 (* n 0.01)))
(push 1)
(declare-fun s_n_6 () Real)
(declare-fun i_n_6 () Real)
(declare-fun r_n_6 () Real)
(assert (and (= r_n_6 (+ (* gamma i_5) r_5)) (= s_n_6 (+ (* (* (* beta_0 (- 1.0)) s_5) i_5) s_5)) (= i_n_6 (+ (- (* (* beta_0 s_5) i_5) (* gamma i_5)) i_5)) (<= r_n_6 n) (<= 0.0 r_n_6) (<= s_n_6 n) (<= 0.0 s_n_6) (<= i_n_6 n) (<= 0.0 i_n_6)))
(push 1)
(declare-fun scale_6 () Real)
(assert (and (= scale_6 (/ n (+ (+ s_n_6 i_n_6) r_n_6))) (<= scale_6 1.0) (<= 0.0 scale_6)))
(push 1)
(declare-fun s_6 () Real)
(declare-fun r_6 () Real)
(declare-fun i_6 () Real)
(assert (and (= s_6 (* s_n_6 scale_6)) (= i_6 (* i_n_6 scale_6)) (= r_6 (* r_n_6 scale_6)) (<= r_6 n) (<= 0.0 r_6) (<= s_6 n) (<= 0.0 s_6) (<= i_6 n) (<= 0.0 i_6)))
(push 1)
(assert (< i_6 (* n 0.01)))
(push 1)
(declare-fun s_n_7 () Real)
(declare-fun r_n_7 () Real)
(declare-fun i_n_7 () Real)
(assert (and (= r_n_7 (+ (* gamma i_6) r_6)) (= s_n_7 (+ (* (* (* beta_0 (- 1.0)) s_6) i_6) s_6)) (= i_n_7 (+ (- (* (* beta_0 s_6) i_6) (* gamma i_6)) i_6)) (<= r_n_7 n) (<= 0.0 r_n_7) (<= s_n_7 n) (<= 0.0 s_n_7) (<= i_n_7 n) (<= 0.0 i_n_7)))
(push 1)
(declare-fun scale_7 () Real)
(assert (and (= scale_7 (/ n (+ (+ s_n_7 i_n_7) r_n_7))) (<= scale_7 1.0) (<= 0.0 scale_7)))
(push 1)
(declare-fun s_7 () Real)
(declare-fun r_7 () Real)
(declare-fun i_7 () Real)
(assert (and (= s_7 (* s_n_7 scale_7)) (= i_7 (* i_n_7 scale_7)) (= r_7 (* r_n_7 scale_7)) (<= r_7 n) (<= 0.0 r_7) (<= s_7 n) (<= 0.0 s_7) (<= i_7 n) (<= 0.0 i_7)))
(push 1)
(assert (< i_7 (* n 0.01)))
(push 1)
(declare-fun s_n_8 () Real)
(declare-fun i_n_8 () Real)
(declare-fun r_n_8 () Real)
(assert (and (= r_n_8 (+ (* gamma i_7) r_7)) (= s_n_8 (+ (* (* (* beta_0 (- 1.0)) s_7) i_7) s_7)) (= i_n_8 (+ (- (* (* beta_0 s_7) i_7) (* gamma i_7)) i_7)) (<= r_n_8 n) (<= 0.0 r_n_8) (<= s_n_8 n) (<= 0.0 s_n_8) (<= i_n_8 n) (<= 0.0 i_n_8)))
(push 1)
(declare-fun scale_8 () Real)
(assert (and (= scale_8 (/ n (+ (+ s_n_8 i_n_8) r_n_8))) (<= scale_8 1.0) (<= 0.0 scale_8)))
(push 1)
(declare-fun i_8 () Real)
(declare-fun s_8 () Real)
(declare-fun r_8 () Real)
(assert (and (= s_8 (* s_n_8 scale_8)) (= i_8 (* i_n_8 scale_8)) (= r_8 (* r_n_8 scale_8)) (<= r_8 n) (<= 0.0 r_8) (<= s_8 n) (<= 0.0 s_8) (<= i_8 n) (<= 0.0 i_8)))
(push 1)
(assert (< i_8 (* n 0.01)))
(push 1)
(declare-fun s_n_9 () Real)
(declare-fun r_n_9 () Real)
(declare-fun i_n_9 () Real)
(assert (and (= r_n_9 (+ (* gamma i_8) r_8)) (= s_n_9 (+ (* (* (* beta_0 (- 1.0)) s_8) i_8) s_8)) (= i_n_9 (+ (- (* (* beta_0 s_8) i_8) (* gamma i_8)) i_8)) (<= r_n_9 n) (<= 0.0 r_n_9) (<= s_n_9 n) (<= 0.0 s_n_9) (<= i_n_9 n) (<= 0.0 i_n_9)))
(push 1)
(declare-fun scale_9 () Real)
(assert (and (= scale_9 (/ n (+ (+ s_n_9 i_n_9) r_n_9))) (<= scale_9 1.0) (<= 0.0 scale_9)))
(push 1)
(declare-fun i_9 () Real)
(declare-fun s_9 () Real)
(declare-fun r_9 () Real)
(assert (and (= s_9 (* s_n_9 scale_9)) (= i_9 (* i_n_9 scale_9)) (= r_9 (* r_n_9 scale_9)) (<= r_9 n) (<= 0.0 r_9) (<= s_9 n) (<= 0.0 s_9) (<= i_9 n) (<= 0.0 i_9)))
(push 1)
(assert (< i_9 (* n 0.01)))
(push 1)
(declare-fun r_n_10 () Real)
(declare-fun s_n_10 () Real)
(declare-fun i_n_10 () Real)
(assert (and (= r_n_10 (+ (* gamma i_9) r_9)) (= s_n_10 (+ (* (* (* beta_0 (- 1.0)) s_9) i_9) s_9)) (= i_n_10 (+ (- (* (* beta_0 s_9) i_9) (* gamma i_9)) i_9)) (<= r_n_10 n) (<= 0.0 r_n_10) (<= s_n_10 n) (<= 0.0 s_n_10) (<= i_n_10 n) (<= 0.0 i_n_10)))
(push 1)
(declare-fun scale_10 () Real)
(assert (and (= scale_10 (/ n (+ (+ s_n_10 i_n_10) r_n_10))) (<= scale_10 1.0) (<= 0.0 scale_10)))
(push 1)
(declare-fun i_10 () Real)
(declare-fun s_10 () Real)
(declare-fun r_10 () Real)
(assert (and (= s_10 (* s_n_10 scale_10)) (= i_10 (* i_n_10 scale_10)) (= r_10 (* r_n_10 scale_10)) (<= r_10 n) (<= 0.0 r_10) (<= s_10 n) (<= 0.0 s_10) (<= i_10 n) (<= 0.0 i_10)))
(push 1)
(assert (< i_10 (* n 0.01)))
(push 1)
(declare-fun i_n_11 () Real)
(declare-fun s_n_11 () Real)
(declare-fun r_n_11 () Real)
(assert (and (= r_n_11 (+ (* gamma i_10) r_10)) (= s_n_11 (+ (* (* (* beta_0 (- 1.0)) s_10) i_10) s_10)) (= i_n_11 (+ (- (* (* beta_0 s_10) i_10) (* gamma i_10)) i_10)) (<= r_n_11 n) (<= 0.0 r_n_11) (<= s_n_11 n) (<= 0.0 s_n_11) (<= i_n_11 n) (<= 0.0 i_n_11)))
(push 1)
(declare-fun scale_11 () Real)
(assert (and (= scale_11 (/ n (+ (+ s_n_11 i_n_11) r_n_11))) (<= scale_11 1.0) (<= 0.0 scale_11)))
(push 1)
(declare-fun r_11 () Real)
(declare-fun i_11 () Real)
(declare-fun s_11 () Real)
(assert (and (= s_11 (* s_n_11 scale_11)) (= i_11 (* i_n_11 scale_11)) (= r_11 (* r_n_11 scale_11)) (<= r_11 n) (<= 0.0 r_11) (<= s_11 n) (<= 0.0 s_11) (<= i_11 n) (<= 0.0 i_11)))
(push 1)
(assert (< i_11 (* n 0.01)))
(push 1)
(declare-fun i_n_12 () Real)
(declare-fun r_n_12 () Real)
(declare-fun s_n_12 () Real)
(assert (and (= r_n_12 (+ (* gamma i_11) r_11)) (= s_n_12 (+ (* (* (* beta_0 (- 1.0)) s_11) i_11) s_11)) (= i_n_12 (+ (- (* (* beta_0 s_11) i_11) (* gamma i_11)) i_11)) (<= r_n_12 n) (<= 0.0 r_n_12) (<= s_n_12 n) (<= 0.0 s_n_12) (<= i_n_12 n) (<= 0.0 i_n_12)))
(push 1)
(declare-fun scale_12 () Real)
(assert (and (= scale_12 (/ n (+ (+ s_n_12 i_n_12) r_n_12))) (<= scale_12 1.0) (<= 0.0 scale_12)))
(push 1)
(declare-fun r_12 () Real)
(declare-fun i_12 () Real)
(declare-fun s_12 () Real)
(assert (and (= s_12 (* s_n_12 scale_12)) (= i_12 (* i_n_12 scale_12)) (= r_12 (* r_n_12 scale_12)) (<= r_12 n) (<= 0.0 r_12) (<= s_12 n) (<= 0.0 s_12) (<= i_12 n) (<= 0.0 i_12)))
(push 1)
(assert (< i_12 (* n 0.01)))
(push 1)
(declare-fun r_n_13 () Real)
(declare-fun i_n_13 () Real)
(declare-fun s_n_13 () Real)
(assert (and (= r_n_13 (+ (* gamma i_12) r_12)) (= s_n_13 (+ (* (* (* beta_0 (- 1.0)) s_12) i_12) s_12)) (= i_n_13 (+ (- (* (* beta_0 s_12) i_12) (* gamma i_12)) i_12)) (<= r_n_13 n) (<= 0.0 r_n_13) (<= s_n_13 n) (<= 0.0 s_n_13) (<= i_n_13 n) (<= 0.0 i_n_13)))
(push 1)
(declare-fun scale_13 () Real)
(assert (and (= scale_13 (/ n (+ (+ s_n_13 i_n_13) r_n_13))) (<= scale_13 1.0) (<= 0.0 scale_13)))
(push 1)
(declare-fun s_13 () Real)
(declare-fun r_13 () Real)
(declare-fun i_13 () Real)
(assert (and (= s_13 (* s_n_13 scale_13)) (= i_13 (* i_n_13 scale_13)) (= r_13 (* r_n_13 scale_13)) (<= r_13 n) (<= 0.0 r_13) (<= s_13 n) (<= 0.0 s_13) (<= i_13 n) (<= 0.0 i_13)))
(push 1)
(assert (< i_13 (* n 0.01)))
(push 1)
(declare-fun i_n_14 () Real)
(declare-fun r_n_14 () Real)
(declare-fun s_n_14 () Real)
(assert (and (= r_n_14 (+ (* gamma i_13) r_13)) (= s_n_14 (+ (* (* (* beta_0 (- 1.0)) s_13) i_13) s_13)) (= i_n_14 (+ (- (* (* beta_0 s_13) i_13) (* gamma i_13)) i_13)) (<= r_n_14 n) (<= 0.0 r_n_14) (<= s_n_14 n) (<= 0.0 s_n_14) (<= i_n_14 n) (<= 0.0 i_n_14)))
(push 1)
(declare-fun scale_14 () Real)
(assert (and (= scale_14 (/ n (+ (+ s_n_14 i_n_14) r_n_14))) (<= scale_14 1.0) (<= 0.0 scale_14)))
(push 1)
(declare-fun s_14 () Real)
(declare-fun r_14 () Real)
(declare-fun i_14 () Real)
(assert (and (= s_14 (* s_n_14 scale_14)) (= i_14 (* i_n_14 scale_14)) (= r_14 (* r_n_14 scale_14)) (<= r_14 n) (<= 0.0 r_14) (<= s_14 n) (<= 0.0 s_14) (<= i_14 n) (<= 0.0 i_14)))
(push 1)
(assert (< i_14 (* n 0.01)))
(push 1)
(declare-fun r_n_15 () Real)
(declare-fun i_n_15 () Real)
(declare-fun s_n_15 () Real)
(assert (and (= r_n_15 (+ (* gamma i_14) r_14)) (= s_n_15 (+ (* (* (* beta_0 (- 1.0)) s_14) i_14) s_14)) (= i_n_15 (+ (- (* (* beta_0 s_14) i_14) (* gamma i_14)) i_14)) (<= r_n_15 n) (<= 0.0 r_n_15) (<= s_n_15 n) (<= 0.0 s_n_15) (<= i_n_15 n) (<= 0.0 i_n_15)))
(push 1)
(declare-fun scale_15 () Real)
(assert (and (= scale_15 (/ n (+ (+ s_n_15 i_n_15) r_n_15))) (<= scale_15 1.0) (<= 0.0 scale_15)))
(push 1)
(declare-fun s_15 () Real)
(declare-fun r_15 () Real)
(declare-fun i_15 () Real)
(assert (and (= s_15 (* s_n_15 scale_15)) (= i_15 (* i_n_15 scale_15)) (= r_15 (* r_n_15 scale_15)) (<= r_15 n) (<= 0.0 r_15) (<= s_15 n) (<= 0.0 s_15) (<= i_15 n) (<= 0.0 i_15)))
(push 1)
(assert (< i_15 (* n 0.01)))
(push 1)
(declare-fun r_n_16 () Real)
(declare-fun s_n_16 () Real)
(declare-fun i_n_16 () Real)
(assert (and (= r_n_16 (+ (* gamma i_15) r_15)) (= s_n_16 (+ (* (* (* beta_0 (- 1.0)) s_15) i_15) s_15)) (= i_n_16 (+ (- (* (* beta_0 s_15) i_15) (* gamma i_15)) i_15)) (<= r_n_16 n) (<= 0.0 r_n_16) (<= s_n_16 n) (<= 0.0 s_n_16) (<= i_n_16 n) (<= 0.0 i_n_16)))
(push 1)
(declare-fun scale_16 () Real)
(assert (and (= scale_16 (/ n (+ (+ s_n_16 i_n_16) r_n_16))) (<= scale_16 1.0) (<= 0.0 scale_16)))
(push 1)
(declare-fun i_16 () Real)
(declare-fun s_16 () Real)
(declare-fun r_16 () Real)
(assert (and (= s_16 (* s_n_16 scale_16)) (= i_16 (* i_n_16 scale_16)) (= r_16 (* r_n_16 scale_16)) (<= r_16 n) (<= 0.0 r_16) (<= s_16 n) (<= 0.0 s_16) (<= i_16 n) (<= 0.0 i_16)))
(push 1)
(assert (< i_16 (* n 0.01)))
(push 1)
(declare-fun s_n_17 () Real)
(declare-fun r_n_17 () Real)
(declare-fun i_n_17 () Real)
(assert (and (= r_n_17 (+ (* gamma i_16) r_16)) (= s_n_17 (+ (* (* (* beta_0 (- 1.0)) s_16) i_16) s_16)) (= i_n_17 (+ (- (* (* beta_0 s_16) i_16) (* gamma i_16)) i_16)) (<= r_n_17 n) (<= 0.0 r_n_17) (<= s_n_17 n) (<= 0.0 s_n_17) (<= i_n_17 n) (<= 0.0 i_n_17)))
(push 1)
(declare-fun scale_17 () Real)
(assert (and (= scale_17 (/ n (+ (+ s_n_17 i_n_17) r_n_17))) (<= scale_17 1.0) (<= 0.0 scale_17)))
(push 1)
(declare-fun i_17 () Real)
(declare-fun s_17 () Real)
(declare-fun r_17 () Real)
(assert (and (= s_17 (* s_n_17 scale_17)) (= i_17 (* i_n_17 scale_17)) (= r_17 (* r_n_17 scale_17)) (<= r_17 n) (<= 0.0 r_17) (<= s_17 n) (<= 0.0 s_17) (<= i_17 n) (<= 0.0 i_17)))
(push 1)
(assert (< i_17 (* n 0.01)))
(push 1)
(declare-fun r_n_18 () Real)
(declare-fun s_n_18 () Real)
(declare-fun i_n_18 () Real)
(assert (and (= r_n_18 (+ (* gamma i_17) r_17)) (= s_n_18 (+ (* (* (* beta_0 (- 1.0)) s_17) i_17) s_17)) (= i_n_18 (+ (- (* (* beta_0 s_17) i_17) (* gamma i_17)) i_17)) (<= r_n_18 n) (<= 0.0 r_n_18) (<= s_n_18 n) (<= 0.0 s_n_18) (<= i_n_18 n) (<= 0.0 i_n_18)))
(push 1)
(declare-fun scale_18 () Real)
(assert (and (= scale_18 (/ n (+ (+ s_n_18 i_n_18) r_n_18))) (<= scale_18 1.0) (<= 0.0 scale_18)))
(push 1)
(declare-fun i_18 () Real)
(declare-fun s_18 () Real)
(declare-fun r_18 () Real)
(assert (and (= s_18 (* s_n_18 scale_18)) (= i_18 (* i_n_18 scale_18)) (= r_18 (* r_n_18 scale_18)) (<= r_18 n) (<= 0.0 r_18) (<= s_18 n) (<= 0.0 s_18) (<= i_18 n) (<= 0.0 i_18)))
(push 1)
(assert (< i_18 (* n 0.01)))
(push 1)
(declare-fun i_n_19 () Real)
(declare-fun s_n_19 () Real)
(declare-fun r_n_19 () Real)
(assert (and (= r_n_19 (+ (* gamma i_18) r_18)) (= s_n_19 (+ (* (* (* beta_0 (- 1.0)) s_18) i_18) s_18)) (= i_n_19 (+ (- (* (* beta_0 s_18) i_18) (* gamma i_18)) i_18)) (<= r_n_19 n) (<= 0.0 r_n_19) (<= s_n_19 n) (<= 0.0 s_n_19) (<= i_n_19 n) (<= 0.0 i_n_19)))
(push 1)
(declare-fun scale_19 () Real)
(assert (and (= scale_19 (/ n (+ (+ s_n_19 i_n_19) r_n_19))) (<= scale_19 1.0) (<= 0.0 scale_19)))
(push 1)
(declare-fun r_19 () Real)
(declare-fun i_19 () Real)
(declare-fun s_19 () Real)
(assert (and (= s_19 (* s_n_19 scale_19)) (= i_19 (* i_n_19 scale_19)) (= r_19 (* r_n_19 scale_19)) (<= r_19 n) (<= 0.0 r_19) (<= s_19 n) (<= 0.0 s_19) (<= i_19 n) (<= 0.0 i_19)))
(push 1)
(assert (< i_19 (* n 0.01)))
(push 1)
(declare-fun s_n_20 () Real)
(declare-fun i_n_20 () Real)
(declare-fun r_n_20 () Real)
(assert (and (= r_n_20 (+ (* gamma i_19) r_19)) (= s_n_20 (+ (* (* (* beta_0 (- 1.0)) s_19) i_19) s_19)) (= i_n_20 (+ (- (* (* beta_0 s_19) i_19) (* gamma i_19)) i_19)) (<= r_n_20 n) (<= 0.0 r_n_20) (<= s_n_20 n) (<= 0.0 s_n_20) (<= i_n_20 n) (<= 0.0 i_n_20)))
(push 1)
(declare-fun scale_20 () Real)
(assert (and (= scale_20 (/ n (+ (+ s_n_20 i_n_20) r_n_20))) (<= scale_20 1.0) (<= 0.0 scale_20)))
(push 1)
(declare-fun r_20 () Real)
(declare-fun i_20 () Real)
(declare-fun s_20 () Real)
(assert (and (= s_20 (* s_n_20 scale_20)) (= i_20 (* i_n_20 scale_20)) (= r_20 (* r_n_20 scale_20)) (<= r_20 n) (<= 0.0 r_20) (<= s_20 n) (<= 0.0 s_20) (<= i_20 n) (<= 0.0 i_20)))
(push 1)
(assert (< i_20 (* n 0.01)))
(push 1)
(check-sat)
